# Solution for model r5_t18_m7_8 Batch Number: 2
# Finished Task: 18 / 18
# Makespan: 569.0, Total Distance: 411.0, Total Time: 3.3524
# R O S F Batch
0 0 12 0.0 0.0 -1
1 1 8 0.0 0.0 -1
2 2 6 0.0 0.0 -1
3 3 17 0.0 0.0 -1
4 4 9 0.0 0.0 -1
5 3 20 437.0 459.0 1
6 2 10 307.0 332.0 0
7 3 -1 531.0 569.0 1
8 1 22 293.0 314.0 0
9 4 15 283.0 307.0 0
10 2 14 356.0 386.0 0
11 2 -1 549.0 569.0 1
12 0 18 409.0 437.0 1
13 4 -1 532.0 569.0 1
14 2 11 485.0 515.0 1
15 4 16 361.0 392.0 0
16 4 21 423.0 446.0 0
17 3 5 307.0 336.0 0
18 0 -1 458.0 488.0 1
19 1 -1 485.0 515.0 1
20 3 7 481.0 517.0 1
21 4 13 455.0 485.0 0
22 1 19 376.0 405.0 1
